p tw 325 367
1 2
2 113
3 14
4 5
5 6
6 7
7 8
8 9
9 10
10 11
11 12
11 20
12 13
13 15
14 25
15 16
16 17
17 18
18 19
19 20
20 21
21 22
22 23
23 24
24 26
25 36
26 27
27 28
28 29
29 30
30 31
31 32
32 33
32 71
33 34
34 35
35 37
36 47
37 38
38 39
39 40
40 41
41 42
41 64
42 43
43 44
44 45
45 46
46 48
47 58
48 49
49 50
50 51
51 52
52 53
53 54
54 55
54 64
55 56
55 64
56 57
57 59
58 69
59 60
60 61
61 62
62 63
63 64
63 56
64 65
65 66
66 67
67 68
68 70
69 80
70 30
71 72
72 73
73 74
74 75
75 76
76 77
77 78
77 189
78 79
79 81
80 91
81 82
82 83
83 84
84 85
85 86
86 87
87 88
88 89
89 90
90 92
91 102
91 114
92 93
93 94
94 95
95 96
96 97
96 189
97 98
98 99
98 189
99 100
100 101
101 103
102 114
103 104
104 105
105 106
106 107
107 108
107 189
108 109
109 110
110 111
110 162
111 112
112 115
113 224
114 125
115 116
116 117
117 118
118 119
119 120
120 121
120 162
121 122
122 123
123 124
124 126
125 136
126 127
127 128
128 129
129 130
130 131
131 132
132 133
132 109
133 134
134 135
135 137
136 147
137 138
138 139
138 109
139 140
140 141
141 142
142 143
142 159
143 144
144 145
145 146
146 148
146 159
147 158
147 180
148 149
149 150
150 151
151 152
152 153
153 154
154 155
154 109
155 156
156 157
157 109
158 169
159 160
160 161
161 109
162 163
163 164
164 165
165 166
166 167
166 94
167 168
167 94
168 170
168 181
169 180
170 171
171 172
172 173
173 174
174 175
175 176
176 177
177 178
178 179
179 94
180 191
181 182
182 183
183 184
184 185
185 186
186 187
187 188
188 94
189 190
190 192
190 207
191 202
192 193
193 194
194 195
194 203
195 196
196 197
197 198
197 203
198 199
199 200
200 201
201 203
201 207
202 213
203 204
204 205
205 206
206 209
207 208
208 209
209 210
210 211
211 212
212 214
213 225
214 215
215 216
215 218
216 217
216 218
217 218
217 229
218 219
219 220
219 229
220 221
221 222
222 223
223 226
224 260
225 236
226 227
227 228
228 229
229 230
230 231
230 238
231 232
231 238
232 233
233 234
234 235
235 237
236 247
237 238
238 239
239 240
240 241
241 242
241 248
242 243
242 245
243 244
243 245
244 251
245 246
246 251
247 253
247 255
248 249
249 250
250 251
251 252
253 254
254 255
254 257
255 256
256 251
257 258
258 259
259 261
260 271
261 262
262 263
263 264
264 265
265 266
266 267
267 268
268 269
269 270
270 272
271 282
272 273
273 274
274 275
275 276
276 277
276 278
277 251
278 279
279 280
280 281
280 301
281 283
282 293
283 284
284 285
285 286
286 287
287 288
288 289
289 290
289 299
290 291
291 292
292 294
293 304
294 295
295 296
296 297
297 298
298 299
298 301
299 300
300 301
301 302
302 303
303 305
304 315
305 306
306 307
306 24
307 308
308 309
309 310
310 311
311 312
312 313
313 314
314 316
315 3
316 317
316 325
317 318
318 319
319 320
320 321
321 322
322 323
323 324
324 20
325 4
